\ This file has been generated by DOcplex
\ ENCODING=ISO-8859-1
\Problem name: example

Maximize
 obj: x + 2 y
Subject To
 c0: x + y + c0@int_slack = 1

Bounds
 0 <= x <= 1
 0 <= y <= 1
       c0@int_slack <= 1

Binaries
 x y

Generals
 c0@int_slack
End
